problems/csplib-prob015/SchursLemma-models/noch/O2/lingeling/model_1_2-4-11-solution000001.eprime-solution
language ESSENCE' 1.0

letting boxes_PartitionAsSet_ExplicitR6_ExplicitVarSizeWithDummy be
        [[1, 4, 6, 8, 11, 12, 12, 12, 12, 12, 12; int(1..11)], [2, 3, 12, 12, 12, 12, 12, 12, 12, 12, 12; int(1..11)],
         [5, 12, 12, 12, 12, 12, 12, 12, 12, 12, 12; int(1..11)],
         [7, 9, 10, 12, 12, 12, 12, 12, 12, 12, 12; int(1..11)]; int(1..4)]
